
Gurobi 6.0.4 (mac64) logging started Sun May 29 00:21:47 2016


Gurobi 6.0.4 (mac64) logging started Sun May 29 00:22:16 2016


Gurobi 6.0.4 (mac64) logging started Sun May 29 02:36:43 2016


Gurobi 6.0.4 (mac64) logging started Sun May 29 02:36:58 2016


Gurobi 6.0.4 (mac64) logging started Sun May 29 02:38:31 2016


Gurobi 6.0.4 (mac64) logging started Sun May 29 02:39:36 2016


Gurobi 6.0.4 (mac64) logging started Sun May 29 02:40:49 2016


Gurobi 6.0.4 (mac64) logging started Sun May 29 02:42:23 2016


Gurobi 6.0.4 (mac64) logging started Sun May 29 02:42:51 2016


Gurobi 6.0.4 (mac64) logging started Tue May 31 09:21:03 2016


Gurobi 6.0.4 (mac64) logging started Tue May 31 09:21:46 2016


Gurobi 6.0.4 (mac64) logging started Tue May 31 09:22:35 2016


Gurobi 6.0.4 (mac64) logging started Tue May 31 09:56:45 2016


Gurobi 6.0.4 (mac64) logging started Sat Jun  4 21:39:38 2016


Gurobi 6.0.4 (mac64) logging started Sat Jun  4 21:39:59 2016


Gurobi 6.0.4 (mac64) logging started Sat Jun  4 21:42:57 2016


Gurobi 6.0.4 (mac64) logging started Sat Jun  4 21:43:24 2016


Gurobi 6.0.4 (mac64) logging started Sat Jun  4 21:45:00 2016


Gurobi 6.0.4 (mac64) logging started Sat Jun  4 23:54:28 2016


Gurobi 6.0.4 (mac64) logging started Sun Jun  5 00:11:23 2016


Gurobi 6.0.4 (mac64) logging started Sun Jun  5 16:48:45 2016


Gurobi 6.0.4 (mac64) logging started Tue Jun  7 15:17:42 2016


Gurobi 6.0.4 (mac64) logging started Tue Jun  7 15:18:25 2016


Gurobi 6.0.4 (mac64) logging started Tue Jun  7 15:23:17 2016


Gurobi 6.0.4 (mac64) logging started Tue Jun  7 15:24:00 2016


Gurobi 6.0.4 (mac64) logging started Tue Jun  7 16:43:42 2016


Gurobi 6.0.4 (mac64) logging started Thu Jun  9 10:56:41 2016


Gurobi 6.0.4 (mac64) logging started Thu Jun  9 10:56:41 2016


Gurobi 6.0.4 (mac64) logging started Thu Jun  9 10:56:41 2016


Gurobi 6.0.4 (mac64) logging started Thu Jun  9 10:56:41 2016


Gurobi 6.0.4 (mac64) logging started Thu Jun  9 10:56:41 2016


Gurobi 6.0.4 (mac64) logging started Thu Jun  9 11:29:33 2016


Gurobi 6.0.4 (mac64) logging started Thu Jun  9 11:44:25 2016


Gurobi 6.0.4 (mac64) logging started Sat Aug  6 22:22:49 2016


Gurobi 6.0.4 (mac64) logging started Sat Aug  6 22:25:49 2016


Gurobi 6.0.4 (mac64) logging started Sun Aug  7 07:51:45 2016


Gurobi 6.0.4 (mac64) logging started Sun Aug  7 07:52:15 2016


Gurobi 6.0.4 (mac64) logging started Sun Aug  7 07:54:05 2016


Gurobi 6.0.4 (mac64) logging started Wed Aug 10 23:19:23 2016


Gurobi 6.0.4 (mac64) logging started Wed Aug 10 23:19:47 2016


Gurobi 6.0.4 (mac64) logging started Wed Aug 10 23:19:58 2016


Gurobi 6.0.4 (mac64) logging started Wed Aug 10 23:21:03 2016


Gurobi 6.0.4 (mac64) logging started Wed Aug 10 23:21:23 2016


Gurobi 6.0.4 (mac64) logging started Wed Aug 10 23:31:59 2016


Gurobi 6.0.4 (mac64) logging started Wed Aug 10 23:33:55 2016


Gurobi 6.0.4 (mac64) logging started Wed Aug 10 23:36:37 2016


Gurobi 6.0.4 (mac64) logging started Wed Aug 10 23:37:43 2016


Gurobi 6.0.4 (mac64) logging started Wed Aug 10 23:40:24 2016


Gurobi 6.0.4 (mac64) logging started Wed Aug 10 23:41:03 2016


Gurobi 6.0.4 (mac64) logging started Wed Aug 10 23:42:59 2016


Gurobi 6.0.4 (mac64) logging started Wed Aug 10 23:44:46 2016


Gurobi 6.0.4 (mac64) logging started Wed Aug 10 23:48:40 2016


Gurobi 6.0.4 (mac64) logging started Wed Aug 10 23:48:58 2016


Gurobi 6.0.4 (mac64) logging started Thu Aug 11 00:26:17 2016


Gurobi 6.0.4 (mac64) logging started Thu Aug 11 00:26:28 2016


Gurobi 6.0.4 (mac64) logging started Thu Aug 11 00:36:38 2016


Gurobi 6.0.4 (mac64) logging started Thu Aug 11 00:41:08 2016


Gurobi 6.0.4 (mac64) logging started Thu Aug 11 00:44:15 2016


Gurobi 6.0.4 (mac64) logging started Thu Aug 11 00:45:25 2016


Gurobi 6.0.4 (mac64) logging started Thu Aug 11 09:30:42 2016


Gurobi 6.0.4 (mac64) logging started Thu Aug 11 09:41:22 2016


Gurobi 6.0.4 (mac64) logging started Thu Aug 11 15:14:02 2016


Gurobi 6.0.4 (mac64) logging started Thu Aug 11 15:14:32 2016


Gurobi 6.0.4 (mac64) logging started Thu Aug 11 15:16:34 2016


Gurobi 6.0.4 (mac64) logging started Fri Oct  7 11:03:23 2016


Gurobi 6.0.4 (mac64) logging started Fri Oct  7 11:04:01 2016


Gurobi 6.0.4 (mac64) logging started Fri Oct  7 11:04:27 2016


Gurobi 6.0.4 (mac64) logging started Fri Oct  7 11:04:50 2016


Gurobi 6.0.4 (mac64) logging started Fri Oct  7 11:06:14 2016


Gurobi 6.0.4 (mac64) logging started Fri Oct  7 11:09:27 2016


Gurobi 6.0.4 (mac64) logging started Fri Oct  7 11:10:29 2016


Gurobi 6.0.4 (mac64) logging started Fri Oct  7 11:12:04 2016


Gurobi 6.0.4 (mac64) logging started Fri Oct  7 11:12:21 2016


Gurobi 6.0.4 (mac64) logging started Fri Oct  7 11:12:50 2016


Gurobi 6.0.4 (mac64) logging started Fri Oct  7 11:14:36 2016


Gurobi 6.0.4 (mac64) logging started Fri Oct  7 11:14:41 2016


Gurobi 6.0.4 (mac64) logging started Fri Oct  7 11:36:08 2016


Gurobi 6.0.4 (mac64) logging started Fri Oct  7 11:42:51 2016


Gurobi 6.0.4 (mac64) logging started Fri Oct  7 11:49:38 2016


Gurobi 6.0.4 (mac64) logging started Fri Oct  7 11:49:59 2016


Gurobi 6.0.4 (mac64) logging started Fri Oct  7 12:23:16 2016


Gurobi 6.0.4 (mac64) logging started Fri Oct  7 12:23:33 2016


Gurobi 6.0.4 (mac64) logging started Sun Oct 23 20:40:41 2016


Gurobi 6.0.4 (mac64) logging started Sun Oct 23 20:42:46 2016


Gurobi 6.0.4 (mac64) logging started Sun Oct 23 21:01:14 2016

